p cnf 41 135
3 1 0
3 2 0
-1 -2 -3 0
5 2 0
5 4 0
-2 -4 -5 0
-6 3 0
-6 5 0
-3 -5 6 0
-10 -8 0
-10 -9 0
8 9 10 0
11 4 0
11 10 0
-4 -10 -11 0
12 -7 0
12 11 0
7 -11 -12 0
6 -12 -13 0
-6 12 -13 0
6 12 13 0
-6 -12 13 0
-13 -3 -14 0
13 3 -14 0
-13 3 14 0
13 -3 14 0
16 1 0
16 -15 0
-1 15 -16 0
-1 16 -17 0
1 -16 -17 0
-1 -16 17 0
1 16 17 0
18 -1 0
18 4 0
1 -4 -18 0
-1 18 -19 0
1 -18 -19 0
-1 -18 19 0
1 18 19 0
-20 -8 0
-20 1 0
8 -1 20 0
-21 19 0
-21 20 0
-19 -20 21 0
21 -22 -23 0
-21 22 -23 0
21 22 23 0
-21 -22 23 0
24 -12 0
24 5 0
12 -5 -24 0
-25 -23 0
-25 24 0
23 -24 25 0
-9 26 0
9 26 0
27 -26 0
27 18 0
26 -18 -27 0
-28 -26 0
-28 7 0
26 -7 28 0
27 -28 -29 0
-27 28 -29 0
27 28 29 0
-27 -28 29 0
-30 25 0
-30 -29 0
-25 29 30 0
31 10 -32 0
-31 -10 -32 0
31 -10 32 0
-31 10 32 0
20 -6 -33 0
-20 6 -33 0
20 6 33 0
-20 -6 33 0
33 34 -35 0
-33 -34 -35 0
33 -34 35 0
-33 34 35 0
-32 -35 -36 0
32 35 -36 0
-32 35 36 0
32 -35 36 0
-37 16 0
-37 18 0
-16 -18 37 0
38 36 0
38 37 0
-36 -37 -38 0
39 30 0
39 -38 0
-30 38 -39 0
40 -17 0
40 -39 0
17 39 -40 0
14 -40 -41 0
-14 40 -41 0
14 40 41 0
-14 -40 41 0
34 16 0
-19 7 -28 -21 0
-39 5 -22 17 36 -8 0
-6 -16 21 0
8 -2 -10 -15 13 0
31 -20 36 10 8 0
-21 25 0
16 -13 0
29 10 0
-14 35 10 28 -29 0
3 20 -37 -6 0
-20 -11 37 -21 0
24 25 -34 21 -9 36 0
29 -25 -1 17 0
5 24 -8 -40 15 0
24 30 0
-39 -38 -2 -36 -24 33 0
-36 -39 -1 -16 -33 -30 0
33 38 2 -23 0
7 -11 -19 -16 -17 0
19 -22 4 35 0
-10 15 40 32 0
1 39 32 25 33 0
-27 -10 -21 -24 4 0
23 -38 -3 -26 -11 0
-23 21 0
-14 -12 32 36 20 -13 0
36 -31 6 -4 19 -25 0
-36 20 0
28 -15 -10 0
-17 -11 34 19 -12 0
41 0
